! RHF DEF2-SVP PrintBasis
* xyz 0 1
H 0 0 0 
H 0 0 0.8
*
